\ This file has been generated by DOcplex
\ ENCODING=ISO-8859-1
\Problem name: random_problem.lp

Minimize
 obj: - 10 x0 - 7 x1 + 2 x2 - 3 x3 + 10 x4 - 8 x5 - 7 x6 - 8 x7 + 8 x8 - 2 x9
      - 6 x10 - x11 - 7 x12 + 4 x13 - x14 + 4 x15 - 8 x16 + 6 x17 - 5 x18
      - 6 x19 + 9 x20 + 6 x21 - 9 x22 + 4 x23 - 10 x24 - 4 x25 - 7 x26 - x27
      - 9 x28 + 5 x29 + 3 x30 + 6 x31 - 2 x32 + 10 x33 - 6 x34 - 9 x35 + 5 x36
      - 5 x37 + 7 x38 - x39 - 6 x40 + 6 x41 + 10 x42 + 8 x43 + 7 x44 - 6 x45
      - 8 x46 + 7 x47 - 6 x48 - 2 x49 - 8 x50 + 6 x51 + 2 x52 + 5 x53 + 10 x54
      - 4 x55 - 3 x56 - 9 x57 + 8 x58 + 4 x59 + 10 x60 + 3 x61 - 6 x62 - 3 x63
      - 2 x64 + 4 x65 + 8 x66 + 4 x67 + 5 x68 + 3 x69 + 4 x70 - 7 x71 + 4 x72
      - x73 - x74 + [ - 6 x0*x25 - 20 x0*x34 + 8 x0*x37 + 4 x0*x39 + 16 x0*x42
      - 8 x0*x52 - 6 x0*x54 + 18 x0*x56 - 12 x0*x57 + 4 x0*x71 + 14 x1*x3
      - 6 x1*x6 + 8 x1*x7 + 8 x1*x18 - 8 x1*x33 - 16 x1*x34 + 10 x1*x46
      - 8 x1*x68 - 10 x1*x69 - 14 x1*x73 + 18 x2*x19 - 16 x2*x21 - 12 x2*x22
      + 14 x2*x24 - 4 x2*x30 + 12 x2*x35 + 10 x2*x40 + 16 x2*x51 - 8 x2*x66
      - 10 x2*x69 + 14 x3*x5 - 12 x3*x12 + 16 x3*x15 - 18 x3*x20 - 4 x3*x28
      - 20 x3*x29 + 20 x3*x57 + 6 x3*x59 - 20 x3*x63 + 20 x4*x8 - 8 x4*x15
      + 8 x4*x29 - 6 x4*x34 + 10 x4*x37 + 16 x4*x43 - 6 x4*x45 + 4 x4*x53
      - 4 x4*x63 + 16 x4*x68 - 16 x5*x14 - 18 x5*x32 + 4 x5*x35 - 12 x5*x36
      + 18 x5*x45 + 16 x5*x53 + 6 x5*x63 - 14 x5*x68 - 10 x5*x71 + 6 x6*x11
      + 2 x6*x21 + 16 x6*x34 + 16 x6*x35 - 18 x6*x44 + 6 x6*x49 - 16 x6*x54
      + 6 x6*x68 + 8 x6*x70 + 14 x7*x18 + 8 x7*x20 - 14 x7*x34 + 12 x7*x42
      - 16 x7*x50 + 20 x7*x51 - 6 x7*x55 - 6 x7*x57 - 6 x7*x64 - 2 x8*x12
      - 10 x8*x19 - 16 x8*x28 - 10 x8*x32 - 8 x8*x33 - 10 x8*x35 - 12 x8*x55
      - 20 x8*x57 + 14 x8*x74 - 14 x9*x12 + 4 x9*x13 - 6 x9*x34 + 10 x9*x38
      + 14 x9*x41 - 4 x9*x42 + 6 x9*x44 - 8 x9*x53 - 12 x9*x55 - 20 x9*x58
      - 4 x10*x11 - 2 x10*x27 + 10 x10*x28 - 10 x10*x31 + 2 x10*x33 + 2 x10*x57
      - 8 x10*x65 + 14 x10*x69 - 18 x10*x72 + 2 x10*x73 - 8 x11*x30 + 20 x11*x42
      - 6 x11*x58 + 18 x11*x59 + 12 x11*x64 + 10 x11*x66 - 2 x11*x67 - 6 x11*x72
      - 6 x12*x22 - 18 x12*x25 - 6 x12*x28 - 12 x12*x37 + 6 x12*x46 + 2 x12*x55
      + 4 x12*x70 - 10 x13*x19 - 18 x13*x23 - 18 x13*x28 + 8 x13*x35
      + 18 x13*x38 + 8 x13*x40 - 12 x13*x50 - 12 x13*x58 - 12 x13*x60
      - 2 x14*x15 + 6 x14*x19 + 6 x14*x36 + 18 x14*x45 - 12 x14*x47 + 16 x14*x54
      + 12 x14*x56 + 4 x14*x62 - 8 x14*x65 - 8 x15*x16 - 16 x15*x20 - 16 x15*x43
      + 20 x15*x45 - 12 x15*x54 + 12 x15*x61 - 8 x15*x62 - 6 x16*x19 - 8 x16*x22
      - 16 x16*x43 - 16 x16*x44 + 14 x16*x48 + 2 x16*x49 - 4 x16*x67
      - 18 x16*x72 + 2 x16*x74 + 16 x17*x20 - 20 x17*x23 + 18 x17*x44
      - 20 x17*x52 + 4 x17*x54 + 16 x17*x56 - 12 x17*x67 + 8 x17*x71 + 2 x17*x72
      + 14 x17*x74 - 10 x18*x25 + 8 x18*x30 + 10 x18*x32 - 16 x18*x44
      - 20 x18*x53 + 2 x18*x56 + 12 x18*x59 - 16 x18*x74 + 10 x19*x20
      + 18 x19*x45 - 16 x19*x60 + 18 x19*x61 + 6 x19*x63 - 12 x20*x26
      + 6 x20*x29 + 6 x20*x31 - 8 x20*x32 - 14 x20*x39 - 14 x21*x28 - 4 x21*x29
      + 14 x21*x31 - 2 x21*x39 - 14 x21*x49 + 8 x21*x60 - 20 x21*x66
      + 20 x21*x73 - 8 x22*x26 - 6 x22*x31 - 8 x22*x43 - 16 x22*x57 + 6 x22*x60
      + 20 x22*x68 + 20 x22*x70 - 6 x23*x24 + 16 x23*x25 + 16 x23*x45
      - 8 x23*x48 - 12 x23*x50 - 4 x23*x58 + 16 x23*x60 - 6 x23*x69 - 6 x24*x28
      - 14 x24*x29 - 20 x24*x33 - 12 x24*x42 - 12 x24*x49 - 16 x24*x60
      - 8 x24*x61 + 16 x24*x72 + 8 x25*x26 - 18 x25*x30 - 16 x25*x32
      + 20 x25*x48 + 16 x25*x65 - 20 x25*x73 + 6 x26*x30 - 20 x26*x31
      + 8 x26*x39 - 4 x26*x46 - 8 x26*x47 - 14 x26*x49 - 6 x26*x62 - 6 x27*x34
      - 10 x27*x35 - 14 x27*x39 - 16 x27*x47 + 20 x27*x48 + 8 x27*x49
      + 20 x27*x51 + 20 x27*x60 + 14 x27*x63 + 6 x28*x31 + 4 x28*x58
      - 10 x28*x70 - 4 x29*x48 - 16 x29*x54 + 12 x29*x56 + 2 x29*x57
      - 16 x29*x73 - 4 x30*x45 + 2 x30*x46 - 10 x30*x49 + 18 x30*x55
      - 18 x30*x65 + 8 x31*x37 - 4 x31*x58 + 6 x31*x59 - 12 x31*x72 + 14 x32*x36
      + 16 x32*x54 + 20 x32*x67 - 12 x32*x71 - 10 x32*x74 - 2 x33*x42
      + 18 x33*x52 + 10 x33*x53 + 10 x33*x61 + 12 x33*x67 - 12 x33*x74
      + 20 x34*x40 + 14 x34*x61 + 16 x34*x74 + 20 x35*x41 - 16 x35*x42
      + 8 x35*x50 - 2 x35*x64 - 10 x36*x37 + 20 x36*x38 + 8 x36*x56 - 12 x36*x70
      - 18 x36*x72 - 2 x36*x73 + 16 x36*x74 - 20 x37*x44 - 14 x37*x48
      - 4 x37*x52 - 6 x37*x59 + 10 x37*x67 + 12 x38*x41 - 20 x38*x50
      - 16 x38*x58 + 10 x38*x59 - 14 x38*x65 - 20 x38*x66 - 2 x38*x69
      + 8 x39*x46 - 4 x39*x58 + 2 x39*x59 - 8 x39*x60 + 8 x39*x61 + 14 x40*x42
      + 12 x40*x46 - 6 x40*x49 + 2 x40*x50 - 8 x40*x51 - 14 x40*x64 - 8 x40*x65
      + 20 x41*x43 - 6 x41*x50 + 8 x41*x52 + 10 x41*x53 - 4 x41*x55 - 10 x41*x63
      - 10 x41*x67 - 8 x42*x53 - 2 x42*x56 + 20 x43*x44 + 2 x43*x47 + 14 x43*x53
      + 16 x43*x66 - 10 x43*x71 + 2 x44*x55 + 12 x44*x63 + 14 x44*x70
      - 6 x45*x54 - 6 x45*x61 + 6 x45*x64 - 6 x46*x49 + 8 x46*x53 + 8 x46*x60
      + 18 x46*x69 + 8 x47*x51 - 14 x47*x55 - 2 x47*x57 - 16 x47*x64 - 6 x47*x65
      - 12 x47*x72 + 20 x48*x50 + 10 x48*x59 + 16 x48*x62 - 10 x48*x71
      + 16 x49*x67 - 18 x50*x69 + 6 x50*x72 + 2 x51*x55 - 20 x51*x59
      - 18 x51*x70 + 10 x51*x71 + 18 x51*x73 - 20 x52*x56 + 8 x52*x64
      - 10 x52*x66 - 6 x52*x69 - 18 x52*x73 + 16 x53*x54 - 18 x54*x68
      - 18 x55*x60 + 12 x56*x65 + 14 x56*x68 - 6 x57*x65 + 4 x57*x70
      - 12 x58*x62 + 12 x58*x70 - 14 x59*x62 - 4 x61*x72 + 8 x61*x73
      + 14 x61*x74 - 2 x62*x64 + 10 x62*x65 + 8 x62*x66 - 6 x62*x70 - 14 x63*x66
      + 8 x63*x71 + 8 x63*x74 + 12 x64*x66 + 6 x64*x71 - 8 x66*x67 + 6 x67*x69
      + 4 x68*x69 - 14 x68*x71 + 4 x68*x73 ]/2
Subject To
 c0: - x4 + 2 x6 + 2 x9 + x12 - x16 + 2 x39 - 2 x48 + 2 x49 - 2 x50 - x65 = 1
 c1: x11 + 2 x16 - 2 x17 + x20 - x26 - 2 x29 - 2 x38 - 2 x41 - 2 x45 + 2 x52 = 
     -1
 c2: 2 x0 - 2 x3 - x8 + 2 x9 + x13 - x22 - x30 - x32 + 2 x54 + x63 = 0
 c3: x7 + 2 x17 - 2 x29 + 2 x31 - 2 x33 + x46 + x53 + 2 x58 - 2 x65 + 2 x70 = 0
 c4: x2 + 2 x4 - x10 + 2 x36 - x38 + x43 + 2 x53 + 2 x56 - x63 + 2 x66 = 1
 c5: - 2 x3 - x11 + 2 x16 - x18 - 2 x19 - 2 x31 - 2 x54 + x62 - 2 x66 - 2 x74
      = -1
 c6: 2 x0 + x8 + 2 x27 + x33 + 2 x48 + 2 x51 - x55 - 2 x57 - 2 x67 - 2 x73 = -2
 c7: - 2 x10 - 2 x14 - 2 x25 + x47 - 2 x50 - 2 x54 + 2 x58 - 2 x62 - x73 + 2 x74
      = 1
 c8: - x0 + x4 - x13 + x20 - 2 x44 + 2 x49 - x54 - x56 + 2 x61 - x73 = -2
 c9: - 2 x19 + x25 - x26 + x27 + x30 - x42 + 2 x46 - x53 - x56 + x72 = -1
 c10: - x8 - 2 x10 - x20 - 2 x22 - 2 x27 + x31 + x60 + 2 x62 - 2 x63 - x64 = 0
 c11: - x5 + 2 x7 + 2 x21 + x35 - x44 + 2 x51 - 2 x56 + 2 x67 - 2 x72 - 2 x73
       = 1
 c12: 2 x4 + 2 x11 - x13 + x16 + 2 x19 + x22 - x38 + x40 + x60 + x62 = -1
 c13: - x6 + 2 x8 - 2 x10 + x13 - x16 + 2 x20 - 2 x21 + 2 x25 + x41 + x42 = -2
 c14: x0 + 2 x21 + 2 x28 - 2 x32 + 2 x49 - x51 - x55 - x60 - 2 x66 + 2 x68 = 0

Bounds
 0 <= x0 <= 1
 0 <= x1 <= 1
 0 <= x2 <= 1
 0 <= x3 <= 1
 0 <= x4 <= 1
 0 <= x5 <= 1
 0 <= x6 <= 1
 0 <= x7 <= 1
 0 <= x8 <= 1
 0 <= x9 <= 1
 0 <= x10 <= 1
 0 <= x11 <= 1
 0 <= x12 <= 1
 0 <= x13 <= 1
 0 <= x14 <= 1
 0 <= x15 <= 1
 0 <= x16 <= 1
 0 <= x17 <= 1
 0 <= x18 <= 1
 0 <= x19 <= 1
 0 <= x20 <= 1
 0 <= x21 <= 1
 0 <= x22 <= 1
 0 <= x23 <= 1
 0 <= x24 <= 1
 0 <= x25 <= 1
 0 <= x26 <= 1
 0 <= x27 <= 1
 0 <= x28 <= 1
 0 <= x29 <= 1
 0 <= x30 <= 1
 0 <= x31 <= 1
 0 <= x32 <= 1
 0 <= x33 <= 1
 0 <= x34 <= 1
 0 <= x35 <= 1
 0 <= x36 <= 1
 0 <= x37 <= 1
 0 <= x38 <= 1
 0 <= x39 <= 1
 0 <= x40 <= 1
 0 <= x41 <= 1
 0 <= x42 <= 1
 0 <= x43 <= 1
 0 <= x44 <= 1
 0 <= x45 <= 1
 0 <= x46 <= 1
 0 <= x47 <= 1
 0 <= x48 <= 1
 0 <= x49 <= 1
 0 <= x50 <= 1
 0 <= x51 <= 1
 0 <= x52 <= 1
 0 <= x53 <= 1
 0 <= x54 <= 1
 0 <= x55 <= 1
 0 <= x56 <= 1
 0 <= x57 <= 1
 0 <= x58 <= 1
 0 <= x59 <= 1
 0 <= x60 <= 1
 0 <= x61 <= 1
 0 <= x62 <= 1
 0 <= x63 <= 1
 0 <= x64 <= 1
 0 <= x65 <= 1
 0 <= x66 <= 1
 0 <= x67 <= 1
 0 <= x68 <= 1
 0 <= x69 <= 1
 0 <= x70 <= 1
 0 <= x71 <= 1
 0 <= x72 <= 1
 0 <= x73 <= 1
 0 <= x74 <= 1

Binaries
 x0 x1 x2 x3 x4 x5 x6 x7 x8 x9 x10 x11 x12 x13 x14 x15 x16 x17 x18 x19 x20 x21
 x22 x23 x24 x25 x26 x27 x28 x29 x30 x31 x32 x33 x34 x35 x36 x37 x38 x39 x40 x41
 x42 x43 x44 x45 x46 x47 x48 x49 x50 x51 x52 x53 x54 x55 x56 x57 x58 x59 x60 x61
 x62 x63 x64 x65 x66 x67 x68 x69 x70 x71 x72 x73 x74
End
